n = 10;
m = 32;
a = [| 8, 18, 26, 11, 3, 9, 25, 31, 4, 14
     | 25, 22, 13, 3, 20, 8, 24, 18, 0, 21
     | 16, 18, 14, 6, 25, 22, 12, 23, 9, 8
     | 26, 19, 9, 20, 3, 2, 20, 14, 4, 6
     | 32, 17, 18, 9, 0, 2, 13, 12, 0, 22
     | 26, 2, 5, 25, 0, 0, 29, 21, 27, 8
     | 11, 11, 6, 9, 10, 6, 18, 17, 0, 0
     | 0, 6, 28, 14, 26, 23, 24, 9, 2, 6
     | 20, 31, 0, 0, 22, 20, 0, 5, 28, 27
     | 13, 0, 0, 3, 1, 15, 13, 2, 7, 25|];
s = [ 6, 28, 16, 17, 7, 38, 2, 17, 26, 10, 14, 13, 24, 31, 5, 6, 3, 26, 6, 31, 16, 17, 16, 8, 30, 20, 8, 7, 8, 0, 13, 2];
